Name: EasyAcademy15
Courses: 94
Rooms: 23
Days: 5
Periods_per_day: 11
Curricula: 24
Min_Max_Daily_Lectures: 3 8
UnavailabilityConstraints: 410
RoomConstraints: 1255

COURSES:
c15984 t81 4 2 60 1
c15985 t966 5 2 150 1
c15987 t8 4 2 150 1
c15988 t53 4 2 20 1
c15989 t14 6 3 60 1
c15991 t926 6 3 100 1
c15992 t1449 6 3 150 1
c15996 t10 6 3 180 1
c15997 t1151 5 2 150 1
c15999 t38 4 2 90 1
c16000 t43 5 2 150 1
c16001 t1150 5 2 150 1
c16002 t4868 3 1 150 1
c16003 t907 4 2 130 1
c16004 t27 4 2 130 1
c16005 t55 6 3 100 1
c16006 t65 4 2 35 1
c16007 t27 4 2 60 1
c16008 t905 4 2 35 1
c16010 t55 6 3 90 1
c16011 t65 6 3 90 1
c16012 t884 4 2 90 1
c16013 t17 4 2 35 1
c16015 t966 5 2 150 1
c16016 t880 4 2 100 1
c16017 t1152 8 3 50 1
c16018 t54 4 2 40 1
c16020 t1166 2 1 35 1
c16021 t1394 2 1 35 1
c16022 t1394 2 1 35 1
c16023 t911 2 1 60 1
c16024 t880 2 1 150 1
c16025 t901 2 1 70 1
c16027 t4862 7 3 150 1
c16028 t17 6 3 130 1
c16030 t901 6 3 130 1
c16031 t24 6 3 35 1
c16032 t8305 4 2 60 1
c16033 t8301 6 2 150 1
c16034 t19 4 2 130 1
c16035 t67 6 3 150 1
c16038 t51 6 3 150 1
c16039 t51 6 3 180 1
c16040 t57 4 2 90 1
c16041 t896 6 3 180 1
c16042 t10 6 3 150 1
c16043 t8 4 2 150 1
c16044 t50 4 2 90 1
c16045 t1449 6 3 130 1
c16046 t887 4 2 90 1
c16048 t70 4 2 130 1
c16049 t9 6 3 130 1
c16050 t13 6 3 130 1
c16052 t17 4 2 100 1
c16053 t19 4 2 100 1
c16054 t69 6 3 130 1
c16055 t1454 6 3 150 1
c16056 t13 4 2 90 1
c16057 t1454 6 3 130 1
c16058 t21 6 3 130 1
c16059 t4882 6 3 20 1
c16060 t926 6 3 180 1
c16061 t19 6 3 130 1
c16062 t71 4 2 130 1
c16063 t905 4 2 100 1
c16064 t931 6 3 130 1
c16065 t875 4 2 130 1
c16067 t14 4 2 35 1
c16068 t4866 4 2 130 1
c16069 t32 4 2 35 1
c16070 t74 6 3 130 1
c16071 t79 6 3 130 1
c16072 t80 6 3 200 1
c16073 t876 6 3 180 1
c16074 t70 8 3 40 1
c16075 t81 4 2 200 1
c16078 t884 3 1 150 1
c16079 t73 4 2 35 1
c16091 t41 3 2 150 0
c16129 t1173 6 3 180 1
c16130 t10 4 2 200 1
c16131 t881 6 3 100 1
c16132 t896 6 3 200 1
c16140 t1152 6 3 150 1
c16146 t72 4 2 25 1
c16148 t1457 4 2 130 1
c16157 t41 3 2 150 0
c16176 t8308 2 1 130 1
c16180 t887 4 2 150 1
c16183 t9 4 2 50 1
c16184 t72 4 2 25 1
c16185 t931 6 3 50 1
c16186 t8303 4 2 50 1
c18449 t4872 6 1 30 1

ROOMS:
r574 330 2
r559 60 2
r560 60 2
r567 80 2
r561 140 2
r564 160 2
r558 90 2
r562 180 2
r563 45 2
r565 160 2
r566 160 2
r568 90 0
r569 280 0
r570 236 0
r571 90 0
r572 280 0
r573 120 0
r576 86 3
r575 84 3
r578 100 1
r579 60 1
r580 60 1
r577 80 1

CURRICULA:
cu1462 3 c15988 c16018 c16074
cu1463 3 c16018 c16059 c16074
cu1466 5 c16008 c16013 c16016 c16053 c16079
cu1468 4 c16020 c16025 c16067 c16069
cu1469 5 c16006 c16021 c16022 c16025 c16031
cu1470 4 c16072 c16075 c16130 c16132
cu1472 2 c16005 c16131
cu1473 3 c16039 c16060 c16073
cu1474 3 c16028 c16054 c16071
cu1475 3 c16004 c16030 c16148
cu1476 4 c16003 c16045 c16065 c16176
cu1477 4 c16057 c16058 c16061 c16070
cu1478 4 c16034 c16049 c16062 c16064
cu1479 3 c16048 c16050 c16068
cu1480 5 c16027 c16035 c16038 c16091 c16157
cu1481 4 c15992 c16042 c16055 c16180
cu1482 4 c15985 c16001 c16015 c16078
cu1483 4 c15997 c16000 c16002 c16033
cu1484 4 c15987 c16024 c16043 c16140
cu1486 7 c15996 c15999 c16010 c16011 c16040 c16046 c16056
cu1487 4 c16012 c16041 c16044 c16129
cu1522 6 c15991 c16017 c16052 c16063 c16146 c16183
cu1523 6 c15991 c16052 c16063 c16184 c16185 c16186
cu1551 6 c15984 c15989 c16007 c16023 c16032 c18449

UNAVAILABILITY_CONSTRAINTS:
c15985 2 0
c15985 2 1
c15985 2 2
c15985 2 3
c15985 2 4
c15985 2 5
c15985 2 6
c15985 2 7
c15985 2 8
c15985 2 9
c15985 2 10
c15987 2 0
c15987 2 1
c15987 2 2
c15987 2 3
c15987 2 4
c15987 2 5
c15987 2 6
c15987 2 7
c15987 2 8
c15987 2 9
c15987 2 10
c15992 2 0
c15992 2 1
c15992 2 2
c15992 2 3
c15992 2 4
c15992 2 5
c15992 2 6
c15992 2 7
c15992 2 8
c15992 2 9
c15992 2 10
c15997 2 0
c15997 2 1
c15997 2 2
c15997 2 3
c15997 2 4
c15997 2 5
c15997 2 6
c15997 2 7
c15997 2 8
c15997 2 9
c15997 2 10
c16000 2 0
c16000 2 1
c16000 2 2
c16000 2 3
c16000 2 4
c16000 2 5
c16000 2 6
c16000 2 7
c16000 2 8
c16000 2 9
c16000 2 10
c16001 2 0
c16001 2 1
c16001 2 2
c16001 2 3
c16001 2 4
c16001 2 5
c16001 2 6
c16001 2 7
c16001 2 8
c16001 2 9
c16001 2 10
c16002 2 0
c16002 2 1
c16002 2 2
c16002 2 3
c16002 2 4
c16002 2 5
c16002 2 6
c16002 2 7
c16002 2 8
c16002 2 9
c16002 2 10
c16006 3 0
c16006 3 1
c16006 3 2
c16006 3 3
c16006 3 4
c16006 3 5
c16006 3 7
c16006 3 8
c16006 4 0
c16006 4 1
c16006 4 2
c16006 4 3
c16006 4 4
c16006 4 5
c16006 4 7
c16006 4 8
c16015 2 0
c16015 2 1
c16015 2 2
c16015 2 3
c16015 2 4
c16015 2 5
c16015 2 6
c16015 2 7
c16015 2 8
c16015 2 9
c16015 2 10
c16020 3 0
c16020 3 1
c16020 3 2
c16020 3 3
c16020 3 4
c16020 3 5
c16020 3 7
c16020 3 8
c16020 4 0
c16020 4 1
c16020 4 2
c16020 4 3
c16020 4 4
c16020 4 5
c16020 4 7
c16020 4 8
c16021 3 0
c16021 3 1
c16021 3 2
c16021 3 3
c16021 3 4
c16021 3 5
c16021 3 7
c16021 3 8
c16021 4 0
c16021 4 1
c16021 4 2
c16021 4 3
c16021 4 4
c16021 4 5
c16021 4 7
c16021 4 8
c16022 3 0
c16022 3 1
c16022 3 2
c16022 3 3
c16022 3 4
c16022 3 5
c16022 3 7
c16022 3 8
c16022 4 0
c16022 4 1
c16022 4 2
c16022 4 3
c16022 4 4
c16022 4 5
c16022 4 7
c16022 4 8
c16023 0 0
c16023 0 1
c16023 0 2
c16023 0 3
c16023 0 4
c16023 0 5
c16023 0 6
c16023 0 7
c16023 0 8
c16023 0 9
c16023 0 10
c16023 1 0
c16023 1 1
c16023 1 6
c16023 1 7
c16023 1 8
c16023 1 9
c16023 1 10
c16023 2 0
c16023 2 1
c16023 2 2
c16023 2 3
c16023 2 4
c16023 2 5
c16023 2 6
c16023 2 7
c16023 2 8
c16023 2 9
c16023 2 10
c16023 3 0
c16023 3 1
c16023 3 2
c16023 3 3
c16023 3 4
c16023 3 5
c16023 3 6
c16023 3 7
c16023 3 8
c16023 3 9
c16023 3 10
c16023 4 0
c16023 4 1
c16023 4 2
c16023 4 3
c16023 4 4
c16023 4 5
c16023 4 6
c16023 4 7
c16023 4 8
c16023 4 9
c16023 4 10
c16024 2 0
c16024 2 1
c16024 2 2
c16024 2 3
c16024 2 4
c16024 2 5
c16024 2 6
c16024 2 7
c16024 2 8
c16024 2 9
c16024 2 10
c16025 3 0
c16025 3 1
c16025 3 2
c16025 3 3
c16025 3 4
c16025 3 5
c16025 3 7
c16025 3 8
c16025 4 0
c16025 4 1
c16025 4 2
c16025 4 3
c16025 4 4
c16025 4 5
c16025 4 7
c16025 4 8
c16027 2 0
c16027 2 1
c16027 2 2
c16027 2 3
c16027 2 4
c16027 2 5
c16027 2 6
c16027 2 7
c16027 2 8
c16027 2 9
c16027 2 10
c16031 3 0
c16031 3 1
c16031 3 2
c16031 3 3
c16031 3 4
c16031 3 5
c16031 3 7
c16031 3 8
c16031 4 0
c16031 4 1
c16031 4 2
c16031 4 3
c16031 4 4
c16031 4 5
c16031 4 7
c16031 4 8
c16033 2 0
c16033 2 1
c16033 2 2
c16033 2 3
c16033 2 4
c16033 2 5
c16033 2 6
c16033 2 7
c16033 2 8
c16033 2 9
c16033 2 10
c16035 2 0
c16035 2 1
c16035 2 2
c16035 2 3
c16035 2 4
c16035 2 5
c16035 2 6
c16035 2 7
c16035 2 8
c16035 2 9
c16035 2 10
c16038 2 0
c16038 2 1
c16038 2 2
c16038 2 3
c16038 2 4
c16038 2 5
c16038 2 6
c16038 2 7
c16038 2 8
c16038 2 9
c16038 2 10
c16042 2 0
c16042 2 1
c16042 2 2
c16042 2 3
c16042 2 4
c16042 2 5
c16042 2 6
c16042 2 7
c16042 2 8
c16042 2 9
c16042 2 10
c16043 2 0
c16043 2 1
c16043 2 2
c16043 2 3
c16043 2 4
c16043 2 5
c16043 2 6
c16043 2 7
c16043 2 8
c16043 2 9
c16043 2 10
c16055 2 0
c16055 2 1
c16055 2 2
c16055 2 3
c16055 2 4
c16055 2 5
c16055 2 6
c16055 2 7
c16055 2 8
c16055 2 9
c16055 2 10
c16067 3 0
c16067 3 1
c16067 3 2
c16067 3 3
c16067 3 4
c16067 3 5
c16067 3 7
c16067 3 8
c16067 4 0
c16067 4 1
c16067 4 2
c16067 4 3
c16067 4 4
c16067 4 5
c16067 4 7
c16067 4 8
c16069 3 0
c16069 3 1
c16069 3 2
c16069 3 3
c16069 3 4
c16069 3 5
c16069 3 7
c16069 3 8
c16069 4 0
c16069 4 1
c16069 4 2
c16069 4 3
c16069 4 4
c16069 4 5
c16069 4 7
c16069 4 8
c16078 2 0
c16078 2 1
c16078 2 2
c16078 2 3
c16078 2 4
c16078 2 5
c16078 2 6
c16078 2 7
c16078 2 8
c16078 2 9
c16078 2 10
c16091 2 0
c16091 2 1
c16091 2 2
c16091 2 3
c16091 2 4
c16091 2 5
c16091 2 6
c16091 2 7
c16091 2 8
c16091 2 9
c16091 2 10
c16140 2 0
c16140 2 1
c16140 2 2
c16140 2 3
c16140 2 4
c16140 2 5
c16140 2 6
c16140 2 7
c16140 2 8
c16140 2 9
c16140 2 10
c16157 2 0
c16157 2 1
c16157 2 2
c16157 2 3
c16157 2 4
c16157 2 5
c16157 2 6
c16157 2 7
c16157 2 8
c16157 2 9
c16157 2 10
c16180 2 0
c16180 2 1
c16180 2 2
c16180 2 3
c16180 2 4
c16180 2 5
c16180 2 6
c16180 2 7
c16180 2 8
c16180 2 9
c16180 2 10

ROOM_CONSTRAINTS:
c15984 r574
c15984 r561
c15984 r564
c15984 r562
c15984 r563
c15984 r565
c15984 r566
c15984 r568
c15984 r569
c15984 r570
c15984 r571
c15984 r572
c15984 r573
c15984 r576
c15984 r575
c15984 r577
c15985 r559
c15985 r560
c15985 r567
c15985 r563
c15985 r565
c15985 r569
c15985 r570
c15985 r571
c15985 r572
c15985 r573
c15985 r577
c15987 r559
c15987 r560
c15987 r567
c15987 r563
c15987 r565
c15987 r569
c15987 r570
c15987 r571
c15987 r572
c15987 r573
c15987 r577
c15988 r574
c15988 r561
c15988 r564
c15988 r562
c15988 r565
c15988 r566
c15988 r568
c15988 r569
c15988 r570
c15988 r571
c15988 r572
c15988 r573
c15988 r576
c15988 r575
c15989 r574
c15989 r561
c15989 r564
c15989 r562
c15989 r563
c15989 r565
c15989 r566
c15989 r568
c15989 r569
c15989 r570
c15989 r571
c15989 r572
c15989 r573
c15989 r576
c15989 r575
c15989 r577
c15991 r574
c15991 r559
c15991 r560
c15991 r567
c15991 r561
c15991 r558
c15991 r562
c15991 r563
c15991 r568
c15991 r569
c15991 r570
c15991 r571
c15991 r572
c15991 r573
c15991 r576
c15991 r575
c15991 r577
c15992 r559
c15992 r560
c15992 r567
c15992 r563
c15992 r565
c15992 r569
c15992 r570
c15992 r571
c15992 r572
c15992 r573
c15992 r577
c15996 r559
c15996 r560
c15996 r564
c15996 r563
c15996 r565
c15996 r566
c15996 r568
c15996 r571
c15997 r559
c15997 r560
c15997 r567
c15997 r563
c15997 r565
c15997 r569
c15997 r570
c15997 r571
c15997 r572
c15997 r573
c15997 r577
c15999 r559
c15999 r560
c15999 r564
c15999 r563
c15999 r565
c15999 r566
c15999 r568
c15999 r571
c16000 r559
c16000 r560
c16000 r567
c16000 r563
c16000 r565
c16000 r569
c16000 r570
c16000 r571
c16000 r572
c16000 r573
c16000 r577
c16001 r559
c16001 r560
c16001 r567
c16001 r563
c16001 r565
c16001 r569
c16001 r570
c16001 r571
c16001 r572
c16001 r573
c16001 r577
c16002 r559
c16002 r560
c16002 r567
c16002 r563
c16002 r565
c16002 r569
c16002 r570
c16002 r571
c16002 r572
c16002 r573
c16002 r577
c16003 r559
c16003 r560
c16003 r567
c16003 r561
c16003 r564
c16003 r558
c16003 r562
c16003 r563
c16003 r565
c16003 r566
c16003 r577
c16004 r559
c16004 r560
c16004 r567
c16004 r561
c16004 r564
c16004 r558
c16004 r562
c16004 r563
c16004 r565
c16004 r566
c16004 r577
c16005 r574
c16005 r559
c16005 r560
c16005 r567
c16005 r561
c16005 r564
c16005 r558
c16005 r562
c16005 r563
c16005 r565
c16005 r566
c16005 r568
c16005 r569
c16005 r570
c16005 r571
c16005 r572
c16005 r573
c16005 r577
c16006 r574
c16006 r561
c16006 r564
c16006 r558
c16006 r562
c16006 r565
c16006 r566
c16006 r568
c16006 r569
c16006 r570
c16006 r571
c16006 r572
c16006 r573
c16006 r576
c16006 r575
c16006 r577
c16007 r574
c16007 r561
c16007 r564
c16007 r562
c16007 r563
c16007 r565
c16007 r566
c16007 r568
c16007 r569
c16007 r570
c16007 r571
c16007 r572
c16007 r573
c16007 r576
c16007 r575
c16007 r577
c16008 r574
c16008 r559
c16008 r560
c16008 r567
c16008 r561
c16008 r558
c16008 r562
c16008 r563
c16008 r568
c16008 r569
c16008 r570
c16008 r571
c16008 r572
c16008 r573
c16008 r576
c16008 r575
c16008 r577
c16010 r559
c16010 r560
c16010 r564
c16010 r563
c16010 r565
c16010 r566
c16010 r568
c16010 r571
c16011 r559
c16011 r560
c16011 r564
c16011 r563
c16011 r565
c16011 r566
c16011 r568
c16011 r571
c16012 r559
c16012 r560
c16012 r564
c16012 r563
c16012 r565
c16012 r566
c16012 r568
c16012 r571
c16013 r574
c16013 r559
c16013 r560
c16013 r567
c16013 r561
c16013 r558
c16013 r562
c16013 r563
c16013 r568
c16013 r569
c16013 r570
c16013 r571
c16013 r572
c16013 r573
c16013 r576
c16013 r575
c16013 r577
c16015 r559
c16015 r560
c16015 r567
c16015 r563
c16015 r565
c16015 r569
c16015 r570
c16015 r571
c16015 r572
c16015 r573
c16015 r577
c16016 r574
c16016 r559
c16016 r560
c16016 r567
c16016 r561
c16016 r558
c16016 r562
c16016 r563
c16016 r568
c16016 r569
c16016 r570
c16016 r571
c16016 r572
c16016 r573
c16016 r576
c16016 r575
c16016 r577
c16017 r574
c16017 r559
c16017 r560
c16017 r567
c16017 r561
c16017 r558
c16017 r562
c16017 r563
c16017 r568
c16017 r569
c16017 r570
c16017 r571
c16017 r572
c16017 r573
c16017 r576
c16017 r575
c16017 r577
c16018 r574
c16018 r561
c16018 r564
c16018 r562
c16018 r565
c16018 r566
c16018 r568
c16018 r569
c16018 r570
c16018 r571
c16018 r572
c16018 r573
c16018 r576
c16018 r575
c16020 r574
c16020 r561
c16020 r564
c16020 r558
c16020 r562
c16020 r565
c16020 r566
c16020 r568
c16020 r569
c16020 r570
c16020 r571
c16020 r572
c16020 r573
c16020 r576
c16020 r575
c16020 r577
c16021 r574
c16021 r561
c16021 r564
c16021 r558
c16021 r562
c16021 r565
c16021 r566
c16021 r568
c16021 r569
c16021 r570
c16021 r571
c16021 r572
c16021 r573
c16021 r576
c16021 r575
c16021 r577
c16022 r574
c16022 r561
c16022 r564
c16022 r558
c16022 r562
c16022 r565
c16022 r566
c16022 r568
c16022 r569
c16022 r570
c16022 r571
c16022 r572
c16022 r573
c16022 r576
c16022 r575
c16022 r577
c16023 r574
c16023 r561
c16023 r564
c16023 r562
c16023 r563
c16023 r565
c16023 r566
c16023 r568
c16023 r569
c16023 r570
c16023 r571
c16023 r572
c16023 r573
c16023 r576
c16023 r575
c16023 r577
c16024 r559
c16024 r560
c16024 r567
c16024 r563
c16024 r565
c16024 r569
c16024 r570
c16024 r571
c16024 r572
c16024 r573
c16024 r577
c16025 r574
c16025 r561
c16025 r564
c16025 r558
c16025 r562
c16025 r565
c16025 r566
c16025 r568
c16025 r569
c16025 r570
c16025 r571
c16025 r572
c16025 r573
c16025 r576
c16025 r575
c16025 r577
c16027 r559
c16027 r560
c16027 r567
c16027 r563
c16027 r565
c16027 r569
c16027 r570
c16027 r571
c16027 r572
c16027 r573
c16027 r577
c16028 r559
c16028 r560
c16028 r567
c16028 r561
c16028 r564
c16028 r558
c16028 r562
c16028 r563
c16028 r565
c16028 r566
c16028 r577
c16030 r559
c16030 r560
c16030 r567
c16030 r561
c16030 r564
c16030 r558
c16030 r562
c16030 r563
c16030 r565
c16030 r566
c16030 r577
c16031 r574
c16031 r561
c16031 r564
c16031 r558
c16031 r562
c16031 r565
c16031 r566
c16031 r568
c16031 r569
c16031 r570
c16031 r571
c16031 r572
c16031 r573
c16031 r576
c16031 r575
c16031 r577
c16032 r574
c16032 r561
c16032 r564
c16032 r562
c16032 r563
c16032 r565
c16032 r566
c16032 r568
c16032 r569
c16032 r570
c16032 r571
c16032 r572
c16032 r573
c16032 r576
c16032 r575
c16032 r577
c16033 r559
c16033 r560
c16033 r567
c16033 r563
c16033 r565
c16033 r569
c16033 r570
c16033 r571
c16033 r572
c16033 r573
c16033 r577
c16034 r559
c16034 r560
c16034 r567
c16034 r561
c16034 r558
c16034 r562
c16034 r563
c16034 r568
c16034 r569
c16034 r570
c16034 r571
c16034 r572
c16034 r573
c16034 r576
c16034 r575
c16034 r577
c16035 r559
c16035 r560
c16035 r567
c16035 r563
c16035 r565
c16035 r569
c16035 r570
c16035 r571
c16035 r572
c16035 r573
c16035 r577
c16038 r559
c16038 r560
c16038 r567
c16038 r563
c16038 r565
c16038 r569
c16038 r570
c16038 r571
c16038 r572
c16038 r573
c16038 r577
c16039 r559
c16039 r560
c16039 r564
c16039 r563
c16039 r565
c16039 r566
c16039 r568
c16039 r571
c16040 r559
c16040 r560
c16040 r564
c16040 r563
c16040 r565
c16040 r566
c16040 r568
c16040 r571
c16041 r559
c16041 r560
c16041 r564
c16041 r563
c16041 r565
c16041 r566
c16041 r568
c16041 r571
c16042 r559
c16042 r560
c16042 r567
c16042 r563
c16042 r565
c16042 r569
c16042 r570
c16042 r571
c16042 r572
c16042 r573
c16042 r577
c16043 r559
c16043 r560
c16043 r567
c16043 r563
c16043 r565
c16043 r569
c16043 r570
c16043 r571
c16043 r572
c16043 r573
c16043 r577
c16044 r559
c16044 r560
c16044 r564
c16044 r563
c16044 r565
c16044 r566
c16044 r568
c16044 r571
c16045 r559
c16045 r560
c16045 r567
c16045 r561
c16045 r564
c16045 r558
c16045 r562
c16045 r563
c16045 r565
c16045 r566
c16045 r577
c16046 r559
c16046 r560
c16046 r564
c16046 r563
c16046 r565
c16046 r566
c16046 r568
c16046 r571
c16048 r559
c16048 r560
c16048 r567
c16048 r561
c16048 r558
c16048 r562
c16048 r563
c16048 r568
c16048 r569
c16048 r570
c16048 r571
c16048 r572
c16048 r573
c16048 r576
c16048 r575
c16048 r577
c16049 r559
c16049 r560
c16049 r567
c16049 r561
c16049 r558
c16049 r562
c16049 r563
c16049 r568
c16049 r569
c16049 r570
c16049 r571
c16049 r572
c16049 r573
c16049 r576
c16049 r575
c16049 r577
c16050 r559
c16050 r560
c16050 r567
c16050 r561
c16050 r558
c16050 r562
c16050 r563
c16050 r568
c16050 r569
c16050 r570
c16050 r571
c16050 r572
c16050 r573
c16050 r576
c16050 r575
c16050 r577
c16052 r574
c16052 r559
c16052 r560
c16052 r567
c16052 r561
c16052 r558
c16052 r562
c16052 r563
c16052 r568
c16052 r569
c16052 r570
c16052 r571
c16052 r572
c16052 r573
c16052 r576
c16052 r575
c16052 r577
c16053 r574
c16053 r559
c16053 r560
c16053 r567
c16053 r561
c16053 r558
c16053 r562
c16053 r563
c16053 r568
c16053 r569
c16053 r570
c16053 r571
c16053 r572
c16053 r573
c16053 r576
c16053 r575
c16053 r577
c16054 r559
c16054 r560
c16054 r567
c16054 r561
c16054 r564
c16054 r558
c16054 r562
c16054 r563
c16054 r565
c16054 r566
c16054 r577
c16055 r559
c16055 r560
c16055 r567
c16055 r563
c16055 r565
c16055 r569
c16055 r570
c16055 r571
c16055 r572
c16055 r573
c16055 r577
c16056 r559
c16056 r560
c16056 r564
c16056 r563
c16056 r565
c16056 r566
c16056 r568
c16056 r571
c16057 r559
c16057 r560
c16057 r567
c16057 r561
c16057 r558
c16057 r562
c16057 r563
c16057 r568
c16057 r569
c16057 r570
c16057 r571
c16057 r572
c16057 r573
c16057 r576
c16057 r575
c16057 r577
c16058 r559
c16058 r560
c16058 r567
c16058 r561
c16058 r558
c16058 r562
c16058 r563
c16058 r568
c16058 r569
c16058 r570
c16058 r571
c16058 r572
c16058 r573
c16058 r576
c16058 r575
c16058 r577
c16059 r574
c16059 r561
c16059 r564
c16059 r562
c16059 r565
c16059 r566
c16059 r568
c16059 r569
c16059 r570
c16059 r571
c16059 r572
c16059 r573
c16059 r576
c16059 r575
c16060 r559
c16060 r560
c16060 r564
c16060 r563
c16060 r565
c16060 r566
c16060 r568
c16060 r571
c16061 r559
c16061 r560
c16061 r567
c16061 r561
c16061 r558
c16061 r562
c16061 r563
c16061 r568
c16061 r569
c16061 r570
c16061 r571
c16061 r572
c16061 r573
c16061 r576
c16061 r575
c16061 r577
c16062 r559
c16062 r560
c16062 r567
c16062 r561
c16062 r558
c16062 r562
c16062 r563
c16062 r568
c16062 r569
c16062 r570
c16062 r571
c16062 r572
c16062 r573
c16062 r576
c16062 r575
c16062 r577
c16063 r574
c16063 r559
c16063 r560
c16063 r567
c16063 r561
c16063 r558
c16063 r562
c16063 r563
c16063 r568
c16063 r569
c16063 r570
c16063 r571
c16063 r572
c16063 r573
c16063 r576
c16063 r575
c16063 r577
c16064 r559
c16064 r560
c16064 r567
c16064 r561
c16064 r558
c16064 r562
c16064 r563
c16064 r568
c16064 r569
c16064 r570
c16064 r571
c16064 r572
c16064 r573
c16064 r576
c16064 r575
c16064 r577
c16065 r559
c16065 r560
c16065 r567
c16065 r561
c16065 r564
c16065 r558
c16065 r562
c16065 r563
c16065 r565
c16065 r566
c16065 r577
c16067 r574
c16067 r561
c16067 r564
c16067 r558
c16067 r562
c16067 r565
c16067 r566
c16067 r568
c16067 r569
c16067 r570
c16067 r571
c16067 r572
c16067 r573
c16067 r576
c16067 r575
c16067 r577
c16068 r559
c16068 r560
c16068 r567
c16068 r561
c16068 r558
c16068 r562
c16068 r563
c16068 r568
c16068 r569
c16068 r570
c16068 r571
c16068 r572
c16068 r573
c16068 r576
c16068 r575
c16068 r577
c16069 r574
c16069 r561
c16069 r564
c16069 r558
c16069 r562
c16069 r565
c16069 r566
c16069 r568
c16069 r569
c16069 r570
c16069 r571
c16069 r572
c16069 r573
c16069 r576
c16069 r575
c16069 r577
c16070 r559
c16070 r560
c16070 r567
c16070 r561
c16070 r558
c16070 r562
c16070 r563
c16070 r568
c16070 r569
c16070 r570
c16070 r571
c16070 r572
c16070 r573
c16070 r576
c16070 r575
c16070 r577
c16071 r559
c16071 r560
c16071 r567
c16071 r561
c16071 r564
c16071 r558
c16071 r562
c16071 r563
c16071 r565
c16071 r566
c16071 r577
c16072 r574
c16072 r559
c16072 r560
c16072 r567
c16072 r561
c16072 r564
c16072 r558
c16072 r562
c16072 r563
c16072 r565
c16072 r566
c16072 r568
c16072 r569
c16072 r570
c16072 r571
c16072 r572
c16072 r573
c16072 r577
c16073 r559
c16073 r560
c16073 r564
c16073 r563
c16073 r565
c16073 r566
c16073 r568
c16073 r571
c16074 r574
c16074 r561
c16074 r564
c16074 r562
c16074 r565
c16074 r566
c16074 r568
c16074 r569
c16074 r570
c16074 r571
c16074 r572
c16074 r573
c16074 r576
c16074 r575
c16075 r574
c16075 r559
c16075 r560
c16075 r567
c16075 r561
c16075 r564
c16075 r558
c16075 r562
c16075 r563
c16075 r565
c16075 r566
c16075 r568
c16075 r569
c16075 r570
c16075 r571
c16075 r572
c16075 r573
c16075 r577
c16078 r559
c16078 r560
c16078 r567
c16078 r563
c16078 r565
c16078 r569
c16078 r570
c16078 r571
c16078 r572
c16078 r573
c16078 r577
c16079 r574
c16079 r559
c16079 r560
c16079 r567
c16079 r561
c16079 r558
c16079 r562
c16079 r563
c16079 r568
c16079 r569
c16079 r570
c16079 r571
c16079 r572
c16079 r573
c16079 r576
c16079 r575
c16079 r577
c16091 r559
c16091 r560
c16091 r567
c16091 r563
c16091 r565
c16091 r569
c16091 r570
c16091 r571
c16091 r572
c16091 r573
c16091 r577
c16129 r559
c16129 r560
c16129 r564
c16129 r563
c16129 r565
c16129 r566
c16129 r568
c16129 r571
c16130 r574
c16130 r559
c16130 r560
c16130 r567
c16130 r561
c16130 r564
c16130 r558
c16130 r562
c16130 r563
c16130 r565
c16130 r566
c16130 r568
c16130 r569
c16130 r570
c16130 r571
c16130 r572
c16130 r573
c16130 r577
c16131 r574
c16131 r559
c16131 r560
c16131 r567
c16131 r561
c16131 r564
c16131 r558
c16131 r562
c16131 r563
c16131 r565
c16131 r566
c16131 r568
c16131 r569
c16131 r570
c16131 r571
c16131 r572
c16131 r573
c16131 r577
c16132 r574
c16132 r559
c16132 r560
c16132 r567
c16132 r561
c16132 r564
c16132 r558
c16132 r562
c16132 r563
c16132 r565
c16132 r566
c16132 r568
c16132 r569
c16132 r570
c16132 r571
c16132 r572
c16132 r573
c16132 r577
c16140 r559
c16140 r560
c16140 r567
c16140 r563
c16140 r565
c16140 r569
c16140 r570
c16140 r571
c16140 r572
c16140 r573
c16140 r577
c16146 r574
c16146 r559
c16146 r560
c16146 r567
c16146 r561
c16146 r558
c16146 r562
c16146 r563
c16146 r568
c16146 r569
c16146 r570
c16146 r571
c16146 r572
c16146 r573
c16146 r576
c16146 r575
c16146 r577
c16148 r559
c16148 r560
c16148 r567
c16148 r561
c16148 r564
c16148 r558
c16148 r562
c16148 r563
c16148 r565
c16148 r566
c16148 r577
c16157 r559
c16157 r560
c16157 r567
c16157 r563
c16157 r565
c16157 r569
c16157 r570
c16157 r571
c16157 r572
c16157 r573
c16157 r577
c16176 r559
c16176 r560
c16176 r567
c16176 r561
c16176 r564
c16176 r558
c16176 r562
c16176 r563
c16176 r565
c16176 r566
c16176 r577
c16180 r559
c16180 r560
c16180 r567
c16180 r563
c16180 r565
c16180 r569
c16180 r570
c16180 r571
c16180 r572
c16180 r573
c16180 r577
c16183 r574
c16183 r559
c16183 r560
c16183 r567
c16183 r561
c16183 r558
c16183 r562
c16183 r563
c16183 r568
c16183 r569
c16183 r570
c16183 r571
c16183 r572
c16183 r573
c16183 r576
c16183 r575
c16183 r577
c16184 r574
c16184 r559
c16184 r560
c16184 r567
c16184 r561
c16184 r558
c16184 r562
c16184 r563
c16184 r568
c16184 r569
c16184 r570
c16184 r571
c16184 r572
c16184 r573
c16184 r576
c16184 r575
c16184 r577
c16185 r574
c16185 r559
c16185 r560
c16185 r567
c16185 r561
c16185 r558
c16185 r562
c16185 r563
c16185 r568
c16185 r569
c16185 r570
c16185 r571
c16185 r572
c16185 r573
c16185 r576
c16185 r575
c16185 r577
c16186 r574
c16186 r559
c16186 r560
c16186 r567
c16186 r561
c16186 r558
c16186 r562
c16186 r563
c16186 r568
c16186 r569
c16186 r570
c16186 r571
c16186 r572
c16186 r573
c16186 r576
c16186 r575
c16186 r577
c18449 r574
c18449 r561
c18449 r564
c18449 r562
c18449 r563
c18449 r565
c18449 r566
c18449 r568
c18449 r569
c18449 r570
c18449 r571
c18449 r572
c18449 r573
c18449 r576
c18449 r575
c18449 r577

END.
